% seed = 5963668

mint = 44;
% maxt = 105;

nActs = 22;
dur = [0,5,3,6,9,4,2,7,1,4,10,1,3,8,3,9,9,5,4,5,7,0];

nSkills = 4;
sreq = [| 0,0,0,0,
	| 0,3,3,3,
	| 1,2,0,2,
	| 1,1,0,3,
	| 1,3,2,0,
	| 1,2,2,0,
	| 1,0,1,3,
	| 0,2,2,3,
	| 1,3,0,3,
	| 1,0,2,3,
	| 1,3,0,3,
	| 1,0,1,1,
	| 1,3,1,0,
	| 0,3,2,1,
	| 1,1,0,3,
	| 1,3,3,0,
	| 1,0,2,2,
	| 1,3,3,0,
	| 0,2,3,3,
	| 1,0,3,2,
	| 1,3,2,0,
	| 0,0,0,0, |];

nResources = 10;
mastery = [| false,false,true,false,
	| false,true,true,true,
	| true,false,false,false,
	| false,false,false,true,
	| false,false,false,true,
	| false,false,true,false,
	| false,true,false,false,
	| false,true,false,false,
	| false,true,true,false,
	| false,true,false,false, |];

nPrecs = 31;
pred = [1,1,1,2,2,2,3,3,4,5,6,6,6,7,8,8,8,9,10,11,12,13,14,15,16,17,17,18,19,20,21];
succ = [2,3,4,9,19,15,11,5,6,7,12,13,8,21,10,11,18,20,16,21,15,14,17,20,17,19,20,19,22,22,22];

nUnrels = 122;
unpred = [2,2,2,2,2,2,2,2,2,2,2,2,2,2,2,3,3,3,3,3,3,3,3,3,3,3,3,3,3,4,4,4,5,5,5,5,5,5,5,5,5,5,5,5,5,5,6,6,7,7,7,7,7,7,7,7,7,7,7,7,7,8,8,8,8,8,9,9,9,9,9,9,9,9,9,9,9,10,10,10,10,10,10,10,11,11,11,11,11,11,11,11,11,12,12,12,12,12,12,12,13,13,13,13,14,14,14,14,15,15,15,15,15,16,16,17,17,18,18,19,19,20];
unsucc = [3,4,5,6,7,8,10,11,12,13,14,16,17,18,21,4,6,8,9,10,12,13,14,15,16,17,18,19,20,5,7,9,6,8,9,10,11,12,13,14,15,16,17,18,19,20,7,9,8,9,10,11,12,13,14,15,16,17,18,19,20,9,12,13,14,15,10,11,12,13,14,15,16,17,18,19,21,11,12,13,14,15,18,21,12,13,14,15,16,17,18,19,20,13,14,16,17,18,19,21,15,16,18,21,15,16,18,21,16,17,18,19,21,18,21,18,21,20,21,20,21,21];

USEFUL_RES = [{},
	{1,2,4,5,6,7,8,9,10},
	{2,3,4,5,7,8,9,10},
	{2,3,4,5,7,8,9,10},
	{1,2,3,6,7,8,9,10},
	{1,2,3,6,7,8,9,10},
	{1,2,3,4,5,6,9},
	{1,2,4,5,6,7,8,9,10},
	{2,3,4,5,7,8,9,10},
	{1,2,3,4,5,6,9},
	{2,3,4,5,7,8,9,10},
	{1,2,3,4,5,6,9},
	{1,2,3,6,7,8,9,10},
	{1,2,4,5,6,7,8,9,10},
	{2,3,4,5,7,8,9,10},
	{1,2,3,6,7,8,9,10},
	{1,2,3,4,5,6,9},
	{1,2,3,6,7,8,9,10},
	{1,2,4,5,6,7,8,9,10},
	{1,2,3,4,5,6,9},
	{1,2,3,6,7,8,9,10},
	{}];

POTENTIAL_ACT = [{2,5,6,7,8,10,12,13,14,16,17,18,19,20,21},
	{2,3,4,5,6,7,8,9,10,11,12,13,14,15,16,17,18,19,20,21},
	{3,4,5,6,7,9,10,11,12,13,15,16,17,18,20,21},
	{2,3,4,7,8,9,10,11,12,14,15,17,19,20},
	{2,3,4,7,8,9,10,11,12,14,15,17,19,20},
	{2,5,6,7,8,10,12,13,14,16,17,18,19,20,21},
	{2,3,4,5,6,8,9,11,13,14,15,16,18,19,21},
	{2,3,4,5,6,8,9,11,13,14,15,16,18,19,21},
	{2,3,4,5,6,7,8,9,10,11,12,13,14,15,16,17,18,19,20,21},
	{2,3,4,5,6,8,9,11,13,14,15,16,18,19,21}];
